(declare-fun c_ack!71 () (_ BitVec 64))
(declare-fun b_ack!70 () (_ BitVec 32))
(declare-fun a_ack!72 () (_ BitVec 32))
(declare-fun FPCHECK_FADD_ACCURACY
             ((_ FloatingPoint 11 53) (_ FloatingPoint 11 53))
             Bool)
(assert (not (fp.eq ((_ to_fp 11 53) c_ack!71) ((_ to_fp 11 53) #x0000000000000000))))
(assert (not (= a_ack!72 b_ack!70)))
(assert (not (= #x00000000 b_ack!70)))
(assert (not (= #x00000000 a_ack!72)))
(assert (bvslt b_ack!70 #x00000000))
(assert (not (bvslt a_ack!72 b_ack!70)))
(assert (not (bvslt #x00000000 a_ack!72)))
(assert (not (fp.gt ((_ to_fp 11 53) c_ack!71) ((_ to_fp 11 53) #x4059000000000000))))
(assert (not (fp.lt ((_ to_fp 11 53) c_ack!71) ((_ to_fp 11 53) #xc059000000000000))))
(assert (bvslt a_ack!72 #x00000000))
(assert (bvslt b_ack!70 #x00000000))
(assert (not (fp.eq ((_ to_fp 11 53) c_ack!71) ((_ to_fp 11 53) #x0000000000000000))))
(assert (fp.gt ((_ to_fp 11 53) c_ack!71) ((_ to_fp 11 53) #x0000000000000000)))
(assert (not (= #x00000000 a_ack!72)))
(assert (bvsle #x00000000 (bvsub #xffffffff a_ack!72)))
(assert (FPCHECK_FADD_ACCURACY
  ((_ to_fp 11 53) roundNearestTiesToEven b_ack!70)
  ((_ to_fp 11 53) roundNearestTiesToEven (bvsub #xffffffff a_ack!72))))

(check-sat)
(exit)
